39450.3,33.11,36.46
36942.37,35.36,38.94
36026.34,36.26,39.93
37273.32,35.04,38.59
37616.12,34.73,38.24
37233.05,35.08,38.63
37479.63,34.85,38.38
38484.15,33.94,37.38
39862.32,32.77,36.09
39612.16,32.98,36.31
35297.46,37.01,40.75
34783.19,37.55,41.36
40656.26,32.13,35.38
34167.47,38.23,42.1
38786.57,33.68,37.09
33693.55,38.77,42.69
37277.67,35.04,38.59
37479.56,34.85,38.38
35700.51,36.59,40.29
33736.86,38.72,42.64
